
Gurobi 10.0.2 (win64) logging started Fri Jun 21 03:41:10 2024

Set parameter LogFile to value "log/log_difficulty1_MNL_DESKTOP-S7OVCUR_9_37.txt"
Gurobi Optimizer version 10.0.2 build v10.0.2rc0 (win64)

CPU model: Intel(R) Core(TM) i7-10510U CPU @ 1.80GHz, instruction set [SSE2|AVX|AVX2]
Thread count: 4 physical cores, 8 logical processors, using up to 8 threads

Optimize a model with 2020 rows, 676 columns and 4612 nonzeros
Model fingerprint: 0xe6b17714
Variable types: 364 continuous, 312 integer (312 binary)
Coefficient statistics:
  Matrix range     [1e-03, 7e+02]
  Objective range  [1e+02, 6e+02]
  Bounds range     [1e+00, 1e+00]
  RHS range        [1e+00, 1e+00]
Found heuristic solution: objective -0.0000000
Presolve removed 224 rows and 104 columns
Presolve time: 0.03s
Presolved: 1796 rows, 572 columns, 4241 nonzeros
Found heuristic solution: objective 2386.6976107
Variable types: 308 continuous, 264 integer (264 binary)

Root relaxation: objective 1.588390e+04, 406 iterations, 0.00 seconds (0.00 work units)

    Nodes    |    Current Node    |     Objective Bounds      |     Work
 Expl Unexpl |  Obj  Depth IntInf | Incumbent    BestBd   Gap | It/Node Time

     0     0 15883.8982    0  154 2386.69761 15883.8982   566%     -    0s
H    0     0                    8047.5519575 15883.8982  97.4%     -    0s
H    0     0                    8993.5333532 15883.8982  76.6%     -    0s
H    0     0                    12961.270822 14979.0181  15.6%     -    0s
     0     0 14979.0181    0  171 12961.2708 14979.0181  15.6%     -    0s
     0     0 14942.2051    0  177 12961.2708 14942.2051  15.3%     -    0s
     0     0 14941.5893    0  176 12961.2708 14941.5893  15.3%     -    0s
     0     0 14941.5168    0  177 12961.2708 14941.5168  15.3%     -    0s
H    0     0                    13004.656501 14666.5305  12.8%     -    0s
     0     0 14666.5305    0  182 13004.6565 14666.5305  12.8%     -    0s
H    0     0                    13638.445747 14666.5305  7.54%     -    0s
H    0     0                    13831.754771 14666.5305  6.04%     -    0s
H    0     0                    14166.701424 14627.9370  3.26%     -    0s
     0     0 14627.9370    0  184 14166.7014 14627.9370  3.26%     -    0s
     0     0 14624.0173    0  186 14166.7014 14624.0173  3.23%     -    0s
     0     0 14623.8037    0  189 14166.7014 14623.8037  3.23%     -    0s
H    0     0                    14247.626241 14623.8037  2.64%     -    0s
     0     0 14442.3941    0  181 14247.6262 14442.3941  1.37%     -    0s
     0     0 14414.8712    0  177 14247.6262 14414.8712  1.17%     -    0s
     0     0 14413.3365    0  179 14247.6262 14413.3365  1.16%     -    0s
     0     0 14413.3365    0  183 14247.6262 14413.3365  1.16%     -    0s
     0     0 14361.7940    0  180 14247.6262 14361.7940  0.80%     -    0s
     0     0 14353.6697    0  182 14247.6262 14353.6697  0.74%     -    0s
     0     0 14352.6353    0  183 14247.6262 14352.6353  0.74%     -    0s
     0     0 14350.9689    0  183 14247.6262 14350.9689  0.73%     -    0s
     0     0 14350.4107    0  182 14247.6262 14350.4107  0.72%     -    0s
     0     0 14336.5828    0  183 14247.6262 14336.5828  0.62%     -    0s
     0     0 14334.3484    0  190 14247.6262 14334.3484  0.61%     -    0s
     0     0 14333.3608    0  188 14247.6262 14333.3608  0.60%     -    0s
     0     0 14333.3016    0  188 14247.6262 14333.3016  0.60%     -    0s
     0     0 14329.5491    0  190 14247.6262 14329.5491  0.57%     -    0s
H    0     0                    14274.226985 14329.5491  0.39%     -    0s
H    0     0                    14274.897809 14329.5491  0.38%     -    0s
     0     0 14328.8276    0  194 14274.8978 14328.8276  0.38%     -    0s
     0     0 14317.3993    0  193 14274.8978 14317.3993  0.30%     -    0s
     0     0 14317.1682    0  192 14274.8978 14317.1682  0.30%     -    0s
     0     0 14314.0001    0  193 14274.8978 14314.0001  0.27%     -    0s
     0     0 14313.5581    0  193 14274.8978 14313.5581  0.27%     -    0s
     0     0 14312.7454    0  194 14274.8978 14312.7454  0.27%     -    0s
     0     0 14312.5333    0  194 14274.8978 14312.5333  0.26%     -    0s
     0     0 14311.4040    0  194 14274.8978 14311.4040  0.26%     -    0s
     0     0 14311.0598    0  188 14274.8978 14311.0598  0.25%     -    0s
     0     0 14310.9402    0  166 14274.8978 14310.9402  0.25%     -    0s
H    0     0                    14278.642204 14310.9402  0.23%     -    0s
     0     2 14310.9402    0  165 14278.6422 14310.9402  0.23%     -    0s

Cutting planes:
  Gomory: 17
  Implied bound: 18
  MIR: 54
  Flow cover: 101
  RLT: 48
  Relax-and-lift: 11
  BQP: 7

Explored 14 nodes (3080 simplex iterations) in 1.03 seconds (0.36 work units)
Thread count was 8 (of 8 available processors)

Solution count 10: 14278.6 14274.9 14274.2 ... 8993.53

Optimal solution found (tolerance 1.00e-04)
Best objective 1.427864220354e+04, best bound 1.427870852225e+04, gap 0.0005%
